max_width = 15;
n_blocks = 25;
width = [4, 7, 4, 5, 4, 4, 4, 5, 3, 2, 2, 5, 2, 2, 2, 4, 2, 4, 3, 1, 2, 2, 1, 3, 1];
height = [26, 10, 12, 9, 11, 8, 8, 5, 8, 11, 11, 4, 10, 7, 6, 3, 6, 2, 2, 6, 3, 3, 4, 1, 3];
